130
197
173
179
113
175
151
124
152
173
119
183
142
122
175
145
128
104
186
157
199
143
122
102
156
145
177
101
120
195
105
182
135
180
130
167
138
169
125
198
150
195
171
102
191
170
137
146
199
172
199
164
154
181
130
173
179
136
128
158
156
162
196
163
109
128
107
119
163
179
118
140
148
125
165
118
147
186
187
112
175
108
157
116
120
148
171
179
139
112
173
138
120
168
120
172
124
160
116
123
